caseWidth=10;
caseHeight=10;
caseCapacity=100;
n=20;
price=[3 31 60 36 10 84 14 92 74 7 45 12 71 28 14 9 56 84 91 63];
weight=[10 6 1 17 15 3 6 5 10 7 17 12 12 13 14 9 8 13 10 4];
side=[1 1 2 1 3 2 2 1 3 3 3 3 4 3 2 3 4 3 3 2];
